21989
15590
14412
12854
5176
29270
31318
16755
7347
13337
5698
23733
29299
6759
27346
9459
26411
19966
29770
10341
2187
29056
15527
8363
15349
31710
24169
23906
28235
6244
32343
16580
5007
13511
5161
9234
10709
28406
2738
16080
27059
8
15770
31425
17702
18407
4159
13191
5987
25903
31798
30667
22529
19059
25742
18862
16078
31925
2737
29132
6574
2067
15045
26667
31391
25285
245
3109
32534
4940
7855
10488
25679
14783
14245
20020
21434
32082
8267
18590
3752
17655
16430
16491
22071
16739
23516
2108
15072
22457
14891
30603
23326
15593
26648
9137
16933
7043
28922
20849
